

set  nodes :=  Ag1 EndPt J1 SR1 Urb1;

set  links:= 
J1 EndPt
J1 Urb1
SR1 Ag1
SR1 J1;

set  demand_nodes:= 
Ag1
Urb1
;

set  non_storage_nodes:= 
Ag1
J1
Urb1
;

set  storage_nodes:= 
SR1
;

set time_step:= 1 2 3;

set actual_time_step:= 2000-01-01 00:00:00 2000-02-01 00:00:00 2000-03-01 00:00:00;

param consumption_coefficient:=
 Ag1  1.0
 Urb1  1.0;

param initial_storage:=
 SR1  450.0;

param inflow:
  1  2  3:=
  SR1        300.000000        320.000000        320.000000;

param storagelower:
  1  2  3:=
  SR1         10.000000         10.000000         10.000000;

param storageupper:
  1  2  3:=
  SR1        500.000000        500.000000        500.000000;

param cost:
  1  2  3:=
  [J1,EndPt]         10.000000         10.000000         10.000000
  [J1,Urb1]          1.000000         10.000000          7.000000
  [SR1,Ag1]         20.000000          8.000000         20.000000
  [SR1,J1]         15.000000         15.000000         15.000000;

param flow_multiplier:
  1  2  3:=
  [J1,EndPt]          1.000000          1.000000          1.000000
  [J1,Urb1]          0.950000          0.850000          0.900000
  [SR1,Ag1]          1.000000          1.000000          1.000000
  [SR1,J1]          1.000000          0.900000          1.000000;

param min_flow:
  1  2  3:=
  [J1,EndPt]         10.000000         30.000000         30.000000
  [J1,Urb1]         20.000000         10.000000         25.000000
  [SR1,Ag1]         25.000000         15.000000         10.000000
  [SR1,J1]         10.000000         10.000000         10.000000;

param max_flow:
  1  2  3:=
  [J1,EndPt]        200.000000        200.000000        200.000000
  [J1,Urb1]        220.000000        250.000000        240.000000
  [SR1,Ag1]        200.000000        210.000000        210.000000
  [SR1,J1]        310.000000        300.000000        300.000000;
